
  32    4
  10   10   10   10

   0   0   0   0   0   3 2 4 8 
   2  10  10  10  10   1 3 
   6  10  10  10  10   1 5 
   9  10  10  10  10   1 5 
   3  10  10  10  10   2 14 6 
   9  10  10  10  10   1 7 
   5  10  10  10  10   1 9 
   1  10  10  10  10   1 9 
   3  10  10  10  10   1 10 
   3  10  10  10  10   1 11 
   3  10  10  10  10   1 12 
   3  10  10  10  10   2 21 13 
  10  10  10  10  10   1 15 
   3  10  10  10  10   1 15 
   8  10  10  10  10   1 16 
   1  10  10  10  10   1 17 
   9  10  10  10  10   2 25 18 
   2  10  10  10  10   1 19 
   8  10  10  10  10   1 20 
   4  10  10  10  10   1 22 
  10  10  10  10  10   2 25 24 
   5  10  10  10  10   1 23 
   1  10  10  10  10   1 24 
   6  10  10  10  10   2 31 26 
   7  10  10  10  10   1 26 
   9  10  10  10  10   1 27 
   7  10  10  10  10   1 28 
   2  10  10  10  10   1 29 
   3  10  10  10  10   1 30 
   6  10  10  10  10   1 32
   9  10  10  10  10   1 32
   0   0   0   0   0   0 
